Maximize
  - 3.6984876550622 edge_0_1_0_0 - 2.9661819494328 edge_0_2_0_0
   - 2.57476086304 edge_0_3_0_0 - 0.3450356727375 edge_0_6_0_0
   - 1.6705026466245 edge_0_8_0_0 + 0.3063226518743399 edge_0_11_0_0
   + 0.54864451822356 edge_0_15_0_0 - 0.25315144608474 edge_0_24_0_0
   - 0.0997413253511727 edge_1_2_0_0 - 0.2444909657363027 edge_1_3_0_0
   - 0.3129196203917465 edge_1_6_0_0 - 0.7960006958936892 edge_2_1_0_0
   - 0.0115570315864177 edge_2_3_0_0 - 0.1675610472106698 edge_2_4_0_0
   + 0.0639231093496686 edge_2_6_0_0 - 0.7600664207495801 edge_2_7_0_0
   - 0.4496325206240996 edge_2_8_0_0 - 0.2819638383521417 edge_2_9_0_0
   + 0.1689548475905507 edge_3_1_0_0 + 1.349229866307301 edge_3_2_0_0
   + 0.3323450618668434 edge_3_4_0_0 + 0.1415580850400013 edge_3_6_0_0
   + 0.2464480234001041 edge_3_7_0_0 - 0.2012439537801564 edge_3_8_0_0
   + 0.0891692382714703 edge_3_9_0_0 - 1.046389867611751 edge_3_11_0_0
   + 0.2555103531030788 edge_3_12_0_0 - 0.9907462807543443 edge_4_1_0_0
   - 0.8853783908305518 edge_4_2_0_0 - 0.1333594396965648 edge_4_3_0_0
   - 0.8821177160503494 edge_4_7_0_0 + 0.2677819869084886 edge_6_1_0_0
   + 0.5688861689177799 edge_6_2_0_0 + 1.006589262315647 edge_6_3_0_0
   + 1.528024158248799 edge_6_4_0_0 + 1.414572604852169 edge_6_7_0_0
   + 1.170082067193822 edge_6_8_0_0 + 0.8450527243814994 edge_6_9_0_0
   + 0.5544364889790173 edge_6_10_0_0 + 0.9297514983884506 edge_6_11_0_0
   + 0.7798468601622888 edge_6_12_0_0 + 0.073481325639418 edge_6_13_0_0
   - 0.1552652195250269 edge_6_14_0_0 + 0.1239894157126604 edge_6_15_0_0
   - 0.1678918161421345 edge_6_18_0_0 + 0.4375193601533809 edge_6_21_0_0
   + 0.0913361495373546 edge_6_24_0_0 + 2.495565616874462 edge_6_27_0_0
   - 0.0568761063934808 edge_7_2_0_0 + 0.2883771328914524 edge_7_3_0_0
   + 0.3849785059670859 edge_7_4_0_0 + 1.135178633351972 edge_7_8_0_0
   + 1.019866226767409 edge_7_9_0_0 + 0.6179504098259286 edge_7_10_0_0
   + 0.4728890738370131 edge_7_11_0_0 + 1.03062694574628 edge_7_12_0_0
   - 0.864204530295027 edge_7_15_0_0 + 0.2471173811846244 edge_8_1_0_0
   + 0.00968754066833586 edge_8_2_0_0 + 0.5834600253406601 edge_8_3_0_0
   + 1.313983578797689 edge_8_4_0_0 + 0.214832495591839 edge_8_6_0_0
   + 1.462553929719912 edge_8_7_0_0 + 2.168294265375719 edge_8_9_0_0
   + 1.16807541360215 edge_8_10_0_0 + 2.384053622538907 edge_8_11_0_0
   + 1.421717253610879 edge_8_12_0_0 - 0.2022854550015647 edge_8_13_0_0
   - 0.3371712122664974 edge_8_14_0_0 - 0.1244240439213168 edge_8_15_0_0
   - 0.6112891073637913 edge_8_16_0_0 - 0.466094963840993 edge_8_19_0_0
   + 0.4923176425947217 edge_8_21_0_0 - 0.1581595126107757 edge_8_24_0_0
   + 3.386255318903515 edge_8_27_0_0 + 0.935232174549691 edge_10_12_0_0
   + 0.4483965166851912 edge_10_13_0_0 - 0.3479497876649587 edge_10_15_0_0
   + 0.4860553580315659 edge_11_1_0_0 - 1.177879160014483 edge_11_2_0_0
   - 0.1971700350982816 edge_11_3_0_0 + 0.6081922517091898 edge_11_4_0_0
   + 0.2384831412093152 edge_11_6_0_0 + 0.1900006690924164 edge_11_7_0_0
   + 0.9294812432990859 edge_11_8_0_0 + 2.128464661675851 edge_11_9_0_0
   + 2.698207811353484 edge_11_10_0_0 + 1.663516816113885 edge_11_12_0_0
   + 0.8887502940877796 edge_11_13_0_0 - 0.2857349784822226 edge_11_14_0_0
   + 0.1415118205381267 edge_11_15_0_0 - 0.1657160826176061 edge_11_16_0_0
   - 0.9780778814449218 edge_11_17_0_0 - 0.5884370058767056 edge_11_18_0_0
   - 0.2826062884443594 edge_11_19_0_0 + 0.4304834509339062 edge_11_21_0_0
   + 0.00958618504524866 edge_11_24_0_0 + 3.304611872909638 edge_11_27_0_0
   - 0.1685099511993839 edge_12_10_0_0 + 0.4071913199714244 edge_13_14_0_0
   + 0.1661730115543736 edge_13_15_0_0 - 0.3356282868196484 edge_13_16_0_0
   - 0.5611415175744955 edge_14_13_0_0 + 0.7560035823140079 edge_15_1_0_0
   - 2.384481908486244 edge_15_2_0_0 - 0.2879789713734195 edge_15_3_0_0
   - 0.4883643005499176 edge_15_4_0_0 + 0.2961445000176702 edge_15_6_0_0
   - 0.1759082496599356 edge_15_7_0_0 + 0.9551251658462057 edge_15_8_0_0
   + 1.546623217388332 edge_15_9_0_0 + 0.8576744978153555 edge_15_10_0_0
   + 1.399555709941374 edge_15_11_0_0 + 0.882034193377058 edge_15_12_0_0
   + 1.911448458603358 edge_15_13_0_0 + 3.130537532527736 edge_15_14_0_0
   + 2.833495585060397 edge_15_16_0_0 + 0.6618669959677833 edge_15_17_0_0
   + 0.5799577448186551 edge_15_18_0_0 + 2.027977272777021 edge_15_19_0_0
   + 1.879929520401505 edge_15_21_0_0 + 0.1658936242409106 edge_15_22_0_0
   - 0.738913557062209 edge_15_23_0_0 + 0.9399217661007341 edge_15_24_0_0
   - 0.7377554491084971 edge_15_26_0_0 + 4.257699029241293 edge_15_27_0_0
   - 0.3585670795217615 edge_16_10_0_0 + 0.6453048912358542 edge_16_13_0_0
   + 0.7555635537654349 edge_16_14_0_0 + 0.0603695900505701 edge_16_17_0_0
   + 0.3913324798066561 edge_16_18_0_0 + 1.317274506946245 edge_16_19_0_0
   + 0.938508488177662 edge_16_21_0_0 - 0.3158511290709586 edge_16_22_0_0
   - 0.5208415034378252 edge_16_23_0_0 + 0.5291144406337424 edge_16_24_0_0
   + 3.585365658488467 edge_16_27_0_0 + 0.6438724129962583 edge_17_16_0_0
   + 0.723898083024149 edge_17_18_0_0 + 0.5931313295655569 edge_17_19_0_0
   + 0.9511706866070523 edge_18_17_0_0 - 0.976898013722504 edge_19_4_0_0
   + 0.2183283366125275 edge_19_13_0_0 + 0.3305457045075011 edge_19_14_0_0
   + 0.474452021528205 edge_19_16_0_0 + 3.14836063607374 edge_19_17_0_0
   + 3.449486029534701 edge_19_18_0_0 + 1.749943084605069 edge_19_21_0_0
   + 0.4255593649579181 edge_19_22_0_0 + 0.0093145555250862 edge_19_23_0_0
   + 0.8725080695253271 edge_19_24_0_0 - 0.6357040137108042 edge_19_26_0_0
   + 3.856013791810271 edge_19_27_0_0 - 0.6334134352413138 edge_21_17_0_0
   - 0.3796113571435208 edge_21_18_0_0 - 0.6157096797505573 edge_21_19_0_0
   + 0.4001561865346998 edge_22_23_0_0 - 0.4328249090717573 edge_23_22_0_0
   + 1.270633494002694 edge_23_24_0_0 + 0.00150808597276179 edge_23_26_0_0
   + 0.00934819076817829 edge_24_1_0_0 - 0.1744065068491891 edge_24_6_0_0
   - 0.1948406671009782 edge_24_8_0_0 + 0.2163374258599058 edge_24_9_0_0
   - 0.7543748862946171 edge_24_10_0_0 + 0.1041531219293545 edge_24_11_0_0
   - 0.1669137415332722 edge_24_12_0_0 - 0.2204613658080401 edge_24_14_0_0
   - 0.156843597064324 edge_24_15_0_0 - 0.2579548457422908 edge_24_16_0_0
   + 0.3642056617632958 edge_24_17_0_0 - 0.0487653334182674 edge_24_18_0_0
   - 0.3473188512587473 edge_24_19_0_0 + 0.3485148819202248 edge_24_21_0_0
   + 0.1267024203695704 edge_24_22_0_0 + 0.9099240057710554 edge_24_23_0_0
   + 0.8317999075224833 edge_24_24_0_0 + 1.470435139682555 edge_24_26_0_0
   + 0.9339199065373833 edge_24_27_0_0 - 1.415935789380367 edge_26_18_0_0
   - 0.3914074219437971 edge_26_22_0_0 + 1.88037452102697 edge_26_27_0_0
   - 0.9936272658326535 edge_27_26_0_0
Subject To
 one_parent_1: edge_0_1_0_0 + edge_2_1_0_0 + edge_3_1_0_0 + edge_4_1_0_0
   + edge_6_1_0_0 + edge_8_1_0_0 + edge_11_1_0_0 + edge_15_1_0_0
   + edge_24_1_0_0 = 1
 consume_one_flow_unit_1: flow_0_1_0_0 - flow_1_2_0_0 - flow_1_3_0_0
   - flow_1_6_0_0 + flow_2_1_0_0 + flow_3_1_0_0 + flow_4_1_0_0
   + flow_6_1_0_0 + flow_8_1_0_0 + flow_11_1_0_0 + flow_15_1_0_0
   + flow_24_1_0_0 = 1
 one_parent_2: edge_0_2_0_0 + edge_1_2_0_0 + edge_3_2_0_0 + edge_4_2_0_0
   + edge_6_2_0_0 + edge_7_2_0_0 + edge_8_2_0_0 + edge_11_2_0_0
   + edge_15_2_0_0 = 1
 consume_one_flow_unit_2: flow_0_2_0_0 + flow_1_2_0_0 - flow_2_1_0_0
   - flow_2_3_0_0 - flow_2_4_0_0 - flow_2_6_0_0 - flow_2_7_0_0
   - flow_2_8_0_0 - flow_2_9_0_0 + flow_3_2_0_0 + flow_4_2_0_0
   + flow_6_2_0_0 + flow_7_2_0_0 + flow_8_2_0_0 + flow_11_2_0_0
   + flow_15_2_0_0 = 1
 one_parent_3: edge_0_3_0_0 + edge_1_3_0_0 + edge_2_3_0_0 + edge_4_3_0_0
   + edge_6_3_0_0 + edge_7_3_0_0 + edge_8_3_0_0 + edge_11_3_0_0
   + edge_15_3_0_0 = 1
 consume_one_flow_unit_3: flow_0_3_0_0 + flow_1_3_0_0 + flow_2_3_0_0
   - flow_3_1_0_0 - flow_3_2_0_0 - flow_3_4_0_0 - flow_3_6_0_0
   - flow_3_7_0_0 - flow_3_8_0_0 - flow_3_9_0_0 - flow_3_11_0_0
   - flow_3_12_0_0 + flow_4_3_0_0 + flow_6_3_0_0 + flow_7_3_0_0
   + flow_8_3_0_0 + flow_11_3_0_0 + flow_15_3_0_0 = 1
 one_parent_4: edge_2_4_0_0 + edge_3_4_0_0 + edge_6_4_0_0 + edge_7_4_0_0
   + edge_8_4_0_0 + edge_11_4_0_0 + edge_15_4_0_0 + edge_19_4_0_0 = 1
 consume_one_flow_unit_4: flow_2_4_0_0 + flow_3_4_0_0 - flow_4_1_0_0
   - flow_4_2_0_0 - flow_4_3_0_0 - flow_4_7_0_0 + flow_6_4_0_0
   + flow_7_4_0_0 + flow_8_4_0_0 + flow_11_4_0_0 + flow_15_4_0_0
   + flow_19_4_0_0 = 1
 one_parent_5: = 1
 consume_one_flow_unit_5: = 1
 one_parent_6: edge_0_6_0_0 + edge_1_6_0_0 + edge_2_6_0_0 + edge_3_6_0_0
   + edge_8_6_0_0 + edge_11_6_0_0 + edge_15_6_0_0 + edge_24_6_0_0 = 1
 consume_one_flow_unit_6: flow_0_6_0_0 + flow_1_6_0_0 + flow_2_6_0_0
   + flow_3_6_0_0 - flow_6_1_0_0 - flow_6_2_0_0 - flow_6_3_0_0
   - flow_6_4_0_0 - flow_6_7_0_0 - flow_6_8_0_0 - flow_6_9_0_0
   - flow_6_10_0_0 - flow_6_11_0_0 - flow_6_12_0_0 - flow_6_13_0_0
   - flow_6_14_0_0 - flow_6_15_0_0 - flow_6_18_0_0 - flow_6_21_0_0
   - flow_6_24_0_0 - flow_6_27_0_0 + flow_8_6_0_0 + flow_11_6_0_0
   + flow_15_6_0_0 + flow_24_6_0_0 = 1
 one_parent_7: edge_2_7_0_0 + edge_3_7_0_0 + edge_4_7_0_0 + edge_6_7_0_0
   + edge_8_7_0_0 + edge_11_7_0_0 + edge_15_7_0_0 = 1
 consume_one_flow_unit_7: flow_2_7_0_0 + flow_3_7_0_0 + flow_4_7_0_0
   + flow_6_7_0_0 - flow_7_2_0_0 - flow_7_3_0_0 - flow_7_4_0_0
   - flow_7_8_0_0 - flow_7_9_0_0 - flow_7_10_0_0 - flow_7_11_0_0
   - flow_7_12_0_0 - flow_7_15_0_0 + flow_8_7_0_0 + flow_11_7_0_0
   + flow_15_7_0_0 = 1
 one_parent_8: edge_0_8_0_0 + edge_2_8_0_0 + edge_3_8_0_0 + edge_6_8_0_0
   + edge_7_8_0_0 + edge_11_8_0_0 + edge_15_8_0_0 + edge_24_8_0_0 = 1
 consume_one_flow_unit_8: flow_0_8_0_0 + flow_2_8_0_0 + flow_3_8_0_0
   + flow_6_8_0_0 + flow_7_8_0_0 - flow_8_1_0_0 - flow_8_2_0_0
   - flow_8_3_0_0 - flow_8_4_0_0 - flow_8_6_0_0 - flow_8_7_0_0
   - flow_8_9_0_0 - flow_8_10_0_0 - flow_8_11_0_0 - flow_8_12_0_0
   - flow_8_13_0_0 - flow_8_14_0_0 - flow_8_15_0_0 - flow_8_16_0_0
   - flow_8_19_0_0 - flow_8_21_0_0 - flow_8_24_0_0 - flow_8_27_0_0
   + flow_11_8_0_0 + flow_15_8_0_0 + flow_24_8_0_0 = 1
 one_parent_9: edge_2_9_0_0 + edge_3_9_0_0 + edge_6_9_0_0 + edge_7_9_0_0
   + edge_8_9_0_0 + edge_11_9_0_0 + edge_15_9_0_0 + edge_24_9_0_0 = 1
 consume_one_flow_unit_9: flow_2_9_0_0 + flow_3_9_0_0 + flow_6_9_0_0
   + flow_7_9_0_0 + flow_8_9_0_0 + flow_11_9_0_0 + flow_15_9_0_0
   + flow_24_9_0_0 = 1
 one_parent_10: edge_6_10_0_0 + edge_7_10_0_0 + edge_8_10_0_0
   + edge_11_10_0_0 + edge_12_10_0_0 + edge_15_10_0_0 + edge_16_10_0_0
   + edge_24_10_0_0 = 1
 consume_one_flow_unit_10: flow_6_10_0_0 + flow_7_10_0_0 + flow_8_10_0_0
   - flow_10_12_0_0 - flow_10_13_0_0 - flow_10_15_0_0 + flow_11_10_0_0
   + flow_12_10_0_0 + flow_15_10_0_0 + flow_16_10_0_0 + flow_24_10_0_0 = 1
 one_parent_11: edge_0_11_0_0 + edge_3_11_0_0 + edge_6_11_0_0
   + edge_7_11_0_0 + edge_8_11_0_0 + edge_15_11_0_0 + edge_24_11_0_0 = 1
 consume_one_flow_unit_11: flow_0_11_0_0 + flow_3_11_0_0 + flow_6_11_0_0
   + flow_7_11_0_0 + flow_8_11_0_0 - flow_11_1_0_0 - flow_11_2_0_0
   - flow_11_3_0_0 - flow_11_4_0_0 - flow_11_6_0_0 - flow_11_7_0_0
   - flow_11_8_0_0 - flow_11_9_0_0 - flow_11_10_0_0 - flow_11_12_0_0
   - flow_11_13_0_0 - flow_11_14_0_0 - flow_11_15_0_0 - flow_11_16_0_0
   - flow_11_17_0_0 - flow_11_18_0_0 - flow_11_19_0_0 - flow_11_21_0_0
   - flow_11_24_0_0 - flow_11_27_0_0 + flow_15_11_0_0 + flow_24_11_0_0 = 1
 one_parent_12: edge_3_12_0_0 + edge_6_12_0_0 + edge_7_12_0_0
   + edge_8_12_0_0 + edge_10_12_0_0 + edge_11_12_0_0 + edge_15_12_0_0
   + edge_24_12_0_0 = 1
 consume_one_flow_unit_12: flow_3_12_0_0 + flow_6_12_0_0 + flow_7_12_0_0
   + flow_8_12_0_0 + flow_10_12_0_0 + flow_11_12_0_0 - flow_12_10_0_0
   + flow_15_12_0_0 + flow_24_12_0_0 = 1
 one_parent_13: edge_6_13_0_0 + edge_8_13_0_0 + edge_10_13_0_0
   + edge_11_13_0_0 + edge_14_13_0_0 + edge_15_13_0_0 + edge_16_13_0_0
   + edge_19_13_0_0 = 1
 consume_one_flow_unit_13: flow_6_13_0_0 + flow_8_13_0_0 + flow_10_13_0_0
   + flow_11_13_0_0 - flow_13_14_0_0 - flow_13_15_0_0 - flow_13_16_0_0
   + flow_14_13_0_0 + flow_15_13_0_0 + flow_16_13_0_0 + flow_19_13_0_0 = 1
 one_parent_14: edge_6_14_0_0 + edge_8_14_0_0 + edge_11_14_0_0
   + edge_13_14_0_0 + edge_15_14_0_0 + edge_16_14_0_0 + edge_19_14_0_0
   + edge_24_14_0_0 = 1
 consume_one_flow_unit_14: flow_6_14_0_0 + flow_8_14_0_0 + flow_11_14_0_0
   + flow_13_14_0_0 - flow_14_13_0_0 + flow_15_14_0_0 + flow_16_14_0_0
   + flow_19_14_0_0 + flow_24_14_0_0 = 1
 one_parent_15: edge_0_15_0_0 + edge_6_15_0_0 + edge_7_15_0_0
   + edge_8_15_0_0 + edge_10_15_0_0 + edge_11_15_0_0 + edge_13_15_0_0
   + edge_24_15_0_0 = 1
 consume_one_flow_unit_15: flow_0_15_0_0 + flow_6_15_0_0 + flow_7_15_0_0
   + flow_8_15_0_0 + flow_10_15_0_0 + flow_11_15_0_0 + flow_13_15_0_0
   - flow_15_1_0_0 - flow_15_2_0_0 - flow_15_3_0_0 - flow_15_4_0_0
   - flow_15_6_0_0 - flow_15_7_0_0 - flow_15_8_0_0 - flow_15_9_0_0
   - flow_15_10_0_0 - flow_15_11_0_0 - flow_15_12_0_0 - flow_15_13_0_0
   - flow_15_14_0_0 - flow_15_16_0_0 - flow_15_17_0_0 - flow_15_18_0_0
   - flow_15_19_0_0 - flow_15_21_0_0 - flow_15_22_0_0 - flow_15_23_0_0
   - flow_15_24_0_0 - flow_15_26_0_0 - flow_15_27_0_0 + flow_24_15_0_0 = 1
 one_parent_16: edge_8_16_0_0 + edge_11_16_0_0 + edge_13_16_0_0
   + edge_15_16_0_0 + edge_17_16_0_0 + edge_19_16_0_0 + edge_24_16_0_0 = 1
 consume_one_flow_unit_16: flow_8_16_0_0 + flow_11_16_0_0 + flow_13_16_0_0
   + flow_15_16_0_0 - flow_16_10_0_0 - flow_16_13_0_0 - flow_16_14_0_0
   - flow_16_17_0_0 - flow_16_18_0_0 - flow_16_19_0_0 - flow_16_21_0_0
   - flow_16_22_0_0 - flow_16_23_0_0 - flow_16_24_0_0 - flow_16_27_0_0
   + flow_17_16_0_0 + flow_19_16_0_0 + flow_24_16_0_0 = 1
 one_parent_17: edge_11_17_0_0 + edge_15_17_0_0 + edge_16_17_0_0
   + edge_18_17_0_0 + edge_19_17_0_0 + edge_21_17_0_0 + edge_24_17_0_0 = 1
 consume_one_flow_unit_17: flow_11_17_0_0 + flow_15_17_0_0 + flow_16_17_0_0
   - flow_17_16_0_0 - flow_17_18_0_0 - flow_17_19_0_0 + flow_18_17_0_0
   + flow_19_17_0_0 + flow_21_17_0_0 + flow_24_17_0_0 = 1
 one_parent_18: edge_6_18_0_0 + edge_11_18_0_0 + edge_15_18_0_0
   + edge_16_18_0_0 + edge_17_18_0_0 + edge_19_18_0_0 + edge_21_18_0_0
   + edge_24_18_0_0 + edge_26_18_0_0 = 1
 consume_one_flow_unit_18: flow_6_18_0_0 + flow_11_18_0_0 + flow_15_18_0_0
   + flow_16_18_0_0 + flow_17_18_0_0 - flow_18_17_0_0 + flow_19_18_0_0
   + flow_21_18_0_0 + flow_24_18_0_0 + flow_26_18_0_0 = 1
 one_parent_19: edge_8_19_0_0 + edge_11_19_0_0 + edge_15_19_0_0
   + edge_16_19_0_0 + edge_17_19_0_0 + edge_21_19_0_0 + edge_24_19_0_0 = 1
 consume_one_flow_unit_19: flow_8_19_0_0 + flow_11_19_0_0 + flow_15_19_0_0
   + flow_16_19_0_0 + flow_17_19_0_0 - flow_19_4_0_0 - flow_19_13_0_0
   - flow_19_14_0_0 - flow_19_16_0_0 - flow_19_17_0_0 - flow_19_18_0_0
   - flow_19_21_0_0 - flow_19_22_0_0 - flow_19_23_0_0 - flow_19_24_0_0
   - flow_19_26_0_0 - flow_19_27_0_0 + flow_21_19_0_0 + flow_24_19_0_0 = 1
 one_parent_20: = 1
 consume_one_flow_unit_20: = 1
 one_parent_21: edge_6_21_0_0 + edge_8_21_0_0 + edge_11_21_0_0
   + edge_15_21_0_0 + edge_16_21_0_0 + edge_19_21_0_0 + edge_24_21_0_0 = 1
 consume_one_flow_unit_21: flow_6_21_0_0 + flow_8_21_0_0 + flow_11_21_0_0
   + flow_15_21_0_0 + flow_16_21_0_0 + flow_19_21_0_0 - flow_21_17_0_0
   - flow_21_18_0_0 - flow_21_19_0_0 + flow_24_21_0_0 = 1
 one_parent_22: edge_15_22_0_0 + edge_16_22_0_0 + edge_19_22_0_0
   + edge_23_22_0_0 + edge_24_22_0_0 + edge_26_22_0_0 = 1
 consume_one_flow_unit_22: flow_15_22_0_0 + flow_16_22_0_0 + flow_19_22_0_0
   - flow_22_23_0_0 + flow_23_22_0_0 + flow_24_22_0_0 + flow_26_22_0_0 = 1
 one_parent_23: edge_15_23_0_0 + edge_16_23_0_0 + edge_19_23_0_0
   + edge_22_23_0_0 + edge_24_23_0_0 = 1
 consume_one_flow_unit_23: flow_15_23_0_0 + flow_16_23_0_0 + flow_19_23_0_0
   + flow_22_23_0_0 - flow_23_22_0_0 - flow_23_24_0_0 - flow_23_26_0_0
   + flow_24_23_0_0 = 1
 one_parent_24: edge_0_24_0_0 + edge_6_24_0_0 + edge_8_24_0_0
   + edge_11_24_0_0 + edge_15_24_0_0 + edge_16_24_0_0 + edge_19_24_0_0
   + edge_23_24_0_0 + edge_24_24_0_0 = 1
 consume_one_flow_unit_24: flow_0_24_0_0 + flow_6_24_0_0 + flow_8_24_0_0
   + flow_11_24_0_0 + flow_15_24_0_0 + flow_16_24_0_0 + flow_19_24_0_0
   + flow_23_24_0_0 - flow_24_1_0_0 - flow_24_6_0_0 - flow_24_8_0_0
   - flow_24_9_0_0 - flow_24_10_0_0 - flow_24_11_0_0 - flow_24_12_0_0
   - flow_24_14_0_0 - flow_24_15_0_0 - flow_24_16_0_0 - flow_24_17_0_0
   - flow_24_18_0_0 - flow_24_19_0_0 - flow_24_21_0_0 - flow_24_22_0_0
   - flow_24_23_0_0 - flow_24_26_0_0 - flow_24_27_0_0 = 1
 one_parent_25: = 1
 consume_one_flow_unit_25: = 1
 one_parent_26: edge_15_26_0_0 + edge_19_26_0_0 + edge_23_26_0_0
   + edge_24_26_0_0 + edge_27_26_0_0 = 1
 consume_one_flow_unit_26: flow_15_26_0_0 + flow_19_26_0_0 + flow_23_26_0_0
   + flow_24_26_0_0 - flow_26_18_0_0 - flow_26_22_0_0 - flow_26_27_0_0
   + flow_27_26_0_0 = 1
 one_parent_27: edge_6_27_0_0 + edge_8_27_0_0 + edge_11_27_0_0
   + edge_15_27_0_0 + edge_16_27_0_0 + edge_19_27_0_0 + edge_24_27_0_0
   + edge_26_27_0_0 = 1
 consume_one_flow_unit_27: flow_6_27_0_0 + flow_8_27_0_0 + flow_11_27_0_0
   + flow_15_27_0_0 + flow_16_27_0_0 + flow_19_27_0_0 + flow_24_27_0_0
   + flow_26_27_0_0 - flow_27_26_0_0 = 1
 root_flow: flow_0_1_0_0 + flow_0_2_0_0 + flow_0_3_0_0 + flow_0_6_0_0
   + flow_0_8_0_0 + flow_0_11_0_0 + flow_0_15_0_0 + flow_0_24_0_0 = 27
 inactive_no_flow_0_1_0_0: flow_0_1_0_0 - 1000 edge_0_1_0_0 <= 0
 inactive_no_flow_0_2_0_0: flow_0_2_0_0 - 1000 edge_0_2_0_0 <= 0
 inactive_no_flow_0_3_0_0: flow_0_3_0_0 - 1000 edge_0_3_0_0 <= 0
 inactive_no_flow_0_6_0_0: flow_0_6_0_0 - 1000 edge_0_6_0_0 <= 0
 inactive_no_flow_0_8_0_0: flow_0_8_0_0 - 1000 edge_0_8_0_0 <= 0
 inactive_no_flow_0_11_0_0: flow_0_11_0_0 - 1000 edge_0_11_0_0 <= 0
 inactive_no_flow_0_15_0_0: flow_0_15_0_0 - 1000 edge_0_15_0_0 <= 0
 inactive_no_flow_0_24_0_0: flow_0_24_0_0 - 1000 edge_0_24_0_0 <= 0
 inactive_no_flow_1_2_0_0: flow_1_2_0_0 - 1000 edge_1_2_0_0 <= 0
 inactive_no_flow_1_3_0_0: flow_1_3_0_0 - 1000 edge_1_3_0_0 <= 0
 inactive_no_flow_1_6_0_0: flow_1_6_0_0 - 1000 edge_1_6_0_0 <= 0
 inactive_no_flow_2_1_0_0: flow_2_1_0_0 - 1000 edge_2_1_0_0 <= 0
 inactive_no_flow_2_3_0_0: flow_2_3_0_0 - 1000 edge_2_3_0_0 <= 0
 inactive_no_flow_2_4_0_0: flow_2_4_0_0 - 1000 edge_2_4_0_0 <= 0
 inactive_no_flow_2_6_0_0: flow_2_6_0_0 - 1000 edge_2_6_0_0 <= 0
 inactive_no_flow_2_7_0_0: flow_2_7_0_0 - 1000 edge_2_7_0_0 <= 0
 inactive_no_flow_2_8_0_0: flow_2_8_0_0 - 1000 edge_2_8_0_0 <= 0
 inactive_no_flow_2_9_0_0: flow_2_9_0_0 - 1000 edge_2_9_0_0 <= 0
 inactive_no_flow_3_1_0_0: flow_3_1_0_0 - 1000 edge_3_1_0_0 <= 0
 inactive_no_flow_3_2_0_0: flow_3_2_0_0 - 1000 edge_3_2_0_0 <= 0
 inactive_no_flow_3_4_0_0: flow_3_4_0_0 - 1000 edge_3_4_0_0 <= 0
 inactive_no_flow_3_6_0_0: flow_3_6_0_0 - 1000 edge_3_6_0_0 <= 0
 inactive_no_flow_3_7_0_0: flow_3_7_0_0 - 1000 edge_3_7_0_0 <= 0
 inactive_no_flow_3_8_0_0: flow_3_8_0_0 - 1000 edge_3_8_0_0 <= 0
 inactive_no_flow_3_9_0_0: flow_3_9_0_0 - 1000 edge_3_9_0_0 <= 0
 inactive_no_flow_3_11_0_0: flow_3_11_0_0 - 1000 edge_3_11_0_0 <= 0
 inactive_no_flow_3_12_0_0: flow_3_12_0_0 - 1000 edge_3_12_0_0 <= 0
 inactive_no_flow_4_1_0_0: flow_4_1_0_0 - 1000 edge_4_1_0_0 <= 0
 inactive_no_flow_4_2_0_0: flow_4_2_0_0 - 1000 edge_4_2_0_0 <= 0
 inactive_no_flow_4_3_0_0: flow_4_3_0_0 - 1000 edge_4_3_0_0 <= 0
 inactive_no_flow_4_7_0_0: flow_4_7_0_0 - 1000 edge_4_7_0_0 <= 0
 inactive_no_flow_6_1_0_0: flow_6_1_0_0 - 1000 edge_6_1_0_0 <= 0
 inactive_no_flow_6_2_0_0: flow_6_2_0_0 - 1000 edge_6_2_0_0 <= 0
 inactive_no_flow_6_3_0_0: flow_6_3_0_0 - 1000 edge_6_3_0_0 <= 0
 inactive_no_flow_6_4_0_0: flow_6_4_0_0 - 1000 edge_6_4_0_0 <= 0
 inactive_no_flow_6_7_0_0: flow_6_7_0_0 - 1000 edge_6_7_0_0 <= 0
 inactive_no_flow_6_8_0_0: flow_6_8_0_0 - 1000 edge_6_8_0_0 <= 0
 inactive_no_flow_6_9_0_0: flow_6_9_0_0 - 1000 edge_6_9_0_0 <= 0
 inactive_no_flow_6_10_0_0: flow_6_10_0_0 - 1000 edge_6_10_0_0 <= 0
 inactive_no_flow_6_11_0_0: flow_6_11_0_0 - 1000 edge_6_11_0_0 <= 0
 inactive_no_flow_6_12_0_0: flow_6_12_0_0 - 1000 edge_6_12_0_0 <= 0
 inactive_no_flow_6_13_0_0: flow_6_13_0_0 - 1000 edge_6_13_0_0 <= 0
 inactive_no_flow_6_14_0_0: flow_6_14_0_0 - 1000 edge_6_14_0_0 <= 0
 inactive_no_flow_6_15_0_0: flow_6_15_0_0 - 1000 edge_6_15_0_0 <= 0
 inactive_no_flow_6_18_0_0: flow_6_18_0_0 - 1000 edge_6_18_0_0 <= 0
 inactive_no_flow_6_21_0_0: flow_6_21_0_0 - 1000 edge_6_21_0_0 <= 0
 inactive_no_flow_6_24_0_0: flow_6_24_0_0 - 1000 edge_6_24_0_0 <= 0
 inactive_no_flow_6_27_0_0: flow_6_27_0_0 - 1000 edge_6_27_0_0 <= 0
 inactive_no_flow_7_2_0_0: flow_7_2_0_0 - 1000 edge_7_2_0_0 <= 0
 inactive_no_flow_7_3_0_0: flow_7_3_0_0 - 1000 edge_7_3_0_0 <= 0
 inactive_no_flow_7_4_0_0: flow_7_4_0_0 - 1000 edge_7_4_0_0 <= 0
 inactive_no_flow_7_8_0_0: flow_7_8_0_0 - 1000 edge_7_8_0_0 <= 0
 inactive_no_flow_7_9_0_0: flow_7_9_0_0 - 1000 edge_7_9_0_0 <= 0
 inactive_no_flow_7_10_0_0: flow_7_10_0_0 - 1000 edge_7_10_0_0 <= 0
 inactive_no_flow_7_11_0_0: flow_7_11_0_0 - 1000 edge_7_11_0_0 <= 0
 inactive_no_flow_7_12_0_0: flow_7_12_0_0 - 1000 edge_7_12_0_0 <= 0
 inactive_no_flow_7_15_0_0: flow_7_15_0_0 - 1000 edge_7_15_0_0 <= 0
 inactive_no_flow_8_1_0_0: flow_8_1_0_0 - 1000 edge_8_1_0_0 <= 0
 inactive_no_flow_8_2_0_0: flow_8_2_0_0 - 1000 edge_8_2_0_0 <= 0
 inactive_no_flow_8_3_0_0: flow_8_3_0_0 - 1000 edge_8_3_0_0 <= 0
 inactive_no_flow_8_4_0_0: flow_8_4_0_0 - 1000 edge_8_4_0_0 <= 0
 inactive_no_flow_8_6_0_0: flow_8_6_0_0 - 1000 edge_8_6_0_0 <= 0
 inactive_no_flow_8_7_0_0: flow_8_7_0_0 - 1000 edge_8_7_0_0 <= 0
 inactive_no_flow_8_9_0_0: flow_8_9_0_0 - 1000 edge_8_9_0_0 <= 0
 inactive_no_flow_8_10_0_0: flow_8_10_0_0 - 1000 edge_8_10_0_0 <= 0
 inactive_no_flow_8_11_0_0: flow_8_11_0_0 - 1000 edge_8_11_0_0 <= 0
 inactive_no_flow_8_12_0_0: flow_8_12_0_0 - 1000 edge_8_12_0_0 <= 0
 inactive_no_flow_8_13_0_0: flow_8_13_0_0 - 1000 edge_8_13_0_0 <= 0
 inactive_no_flow_8_14_0_0: flow_8_14_0_0 - 1000 edge_8_14_0_0 <= 0
 inactive_no_flow_8_15_0_0: flow_8_15_0_0 - 1000 edge_8_15_0_0 <= 0
 inactive_no_flow_8_16_0_0: flow_8_16_0_0 - 1000 edge_8_16_0_0 <= 0
 inactive_no_flow_8_19_0_0: flow_8_19_0_0 - 1000 edge_8_19_0_0 <= 0
 inactive_no_flow_8_21_0_0: flow_8_21_0_0 - 1000 edge_8_21_0_0 <= 0
 inactive_no_flow_8_24_0_0: flow_8_24_0_0 - 1000 edge_8_24_0_0 <= 0
 inactive_no_flow_8_27_0_0: flow_8_27_0_0 - 1000 edge_8_27_0_0 <= 0
 inactive_no_flow_10_12_0_0: flow_10_12_0_0 - 1000 edge_10_12_0_0 <= 0
 inactive_no_flow_10_13_0_0: flow_10_13_0_0 - 1000 edge_10_13_0_0 <= 0
 inactive_no_flow_10_15_0_0: flow_10_15_0_0 - 1000 edge_10_15_0_0 <= 0
 inactive_no_flow_11_1_0_0: flow_11_1_0_0 - 1000 edge_11_1_0_0 <= 0
 inactive_no_flow_11_2_0_0: flow_11_2_0_0 - 1000 edge_11_2_0_0 <= 0
 inactive_no_flow_11_3_0_0: flow_11_3_0_0 - 1000 edge_11_3_0_0 <= 0
 inactive_no_flow_11_4_0_0: flow_11_4_0_0 - 1000 edge_11_4_0_0 <= 0
 inactive_no_flow_11_6_0_0: flow_11_6_0_0 - 1000 edge_11_6_0_0 <= 0
 inactive_no_flow_11_7_0_0: flow_11_7_0_0 - 1000 edge_11_7_0_0 <= 0
 inactive_no_flow_11_8_0_0: flow_11_8_0_0 - 1000 edge_11_8_0_0 <= 0
 inactive_no_flow_11_9_0_0: flow_11_9_0_0 - 1000 edge_11_9_0_0 <= 0
 inactive_no_flow_11_10_0_0: flow_11_10_0_0 - 1000 edge_11_10_0_0 <= 0
 inactive_no_flow_11_12_0_0: flow_11_12_0_0 - 1000 edge_11_12_0_0 <= 0
 inactive_no_flow_11_13_0_0: flow_11_13_0_0 - 1000 edge_11_13_0_0 <= 0
 inactive_no_flow_11_14_0_0: flow_11_14_0_0 - 1000 edge_11_14_0_0 <= 0
 inactive_no_flow_11_15_0_0: flow_11_15_0_0 - 1000 edge_11_15_0_0 <= 0
 inactive_no_flow_11_16_0_0: flow_11_16_0_0 - 1000 edge_11_16_0_0 <= 0
 inactive_no_flow_11_17_0_0: flow_11_17_0_0 - 1000 edge_11_17_0_0 <= 0
 inactive_no_flow_11_18_0_0: flow_11_18_0_0 - 1000 edge_11_18_0_0 <= 0
 inactive_no_flow_11_19_0_0: flow_11_19_0_0 - 1000 edge_11_19_0_0 <= 0
 inactive_no_flow_11_21_0_0: flow_11_21_0_0 - 1000 edge_11_21_0_0 <= 0
 inactive_no_flow_11_24_0_0: flow_11_24_0_0 - 1000 edge_11_24_0_0 <= 0
 inactive_no_flow_11_27_0_0: flow_11_27_0_0 - 1000 edge_11_27_0_0 <= 0
 inactive_no_flow_12_10_0_0: flow_12_10_0_0 - 1000 edge_12_10_0_0 <= 0
 inactive_no_flow_13_14_0_0: flow_13_14_0_0 - 1000 edge_13_14_0_0 <= 0
 inactive_no_flow_13_15_0_0: flow_13_15_0_0 - 1000 edge_13_15_0_0 <= 0
 inactive_no_flow_13_16_0_0: flow_13_16_0_0 - 1000 edge_13_16_0_0 <= 0
 inactive_no_flow_14_13_0_0: flow_14_13_0_0 - 1000 edge_14_13_0_0 <= 0
 inactive_no_flow_15_1_0_0: flow_15_1_0_0 - 1000 edge_15_1_0_0 <= 0
 inactive_no_flow_15_2_0_0: flow_15_2_0_0 - 1000 edge_15_2_0_0 <= 0
 inactive_no_flow_15_3_0_0: flow_15_3_0_0 - 1000 edge_15_3_0_0 <= 0
 inactive_no_flow_15_4_0_0: flow_15_4_0_0 - 1000 edge_15_4_0_0 <= 0
 inactive_no_flow_15_6_0_0: flow_15_6_0_0 - 1000 edge_15_6_0_0 <= 0
 inactive_no_flow_15_7_0_0: flow_15_7_0_0 - 1000 edge_15_7_0_0 <= 0
 inactive_no_flow_15_8_0_0: flow_15_8_0_0 - 1000 edge_15_8_0_0 <= 0
 inactive_no_flow_15_9_0_0: flow_15_9_0_0 - 1000 edge_15_9_0_0 <= 0
 inactive_no_flow_15_10_0_0: flow_15_10_0_0 - 1000 edge_15_10_0_0 <= 0
 inactive_no_flow_15_11_0_0: flow_15_11_0_0 - 1000 edge_15_11_0_0 <= 0
 inactive_no_flow_15_12_0_0: flow_15_12_0_0 - 1000 edge_15_12_0_0 <= 0
 inactive_no_flow_15_13_0_0: flow_15_13_0_0 - 1000 edge_15_13_0_0 <= 0
 inactive_no_flow_15_14_0_0: flow_15_14_0_0 - 1000 edge_15_14_0_0 <= 0
 inactive_no_flow_15_16_0_0: flow_15_16_0_0 - 1000 edge_15_16_0_0 <= 0
 inactive_no_flow_15_17_0_0: flow_15_17_0_0 - 1000 edge_15_17_0_0 <= 0
 inactive_no_flow_15_18_0_0: flow_15_18_0_0 - 1000 edge_15_18_0_0 <= 0
 inactive_no_flow_15_19_0_0: flow_15_19_0_0 - 1000 edge_15_19_0_0 <= 0
 inactive_no_flow_15_21_0_0: flow_15_21_0_0 - 1000 edge_15_21_0_0 <= 0
 inactive_no_flow_15_22_0_0: flow_15_22_0_0 - 1000 edge_15_22_0_0 <= 0
 inactive_no_flow_15_23_0_0: flow_15_23_0_0 - 1000 edge_15_23_0_0 <= 0
 inactive_no_flow_15_24_0_0: flow_15_24_0_0 - 1000 edge_15_24_0_0 <= 0
 inactive_no_flow_15_26_0_0: flow_15_26_0_0 - 1000 edge_15_26_0_0 <= 0
 inactive_no_flow_15_27_0_0: flow_15_27_0_0 - 1000 edge_15_27_0_0 <= 0
 inactive_no_flow_16_10_0_0: flow_16_10_0_0 - 1000 edge_16_10_0_0 <= 0
 inactive_no_flow_16_13_0_0: flow_16_13_0_0 - 1000 edge_16_13_0_0 <= 0
 inactive_no_flow_16_14_0_0: flow_16_14_0_0 - 1000 edge_16_14_0_0 <= 0
 inactive_no_flow_16_17_0_0: flow_16_17_0_0 - 1000 edge_16_17_0_0 <= 0
 inactive_no_flow_16_18_0_0: flow_16_18_0_0 - 1000 edge_16_18_0_0 <= 0
 inactive_no_flow_16_19_0_0: flow_16_19_0_0 - 1000 edge_16_19_0_0 <= 0
 inactive_no_flow_16_21_0_0: flow_16_21_0_0 - 1000 edge_16_21_0_0 <= 0
 inactive_no_flow_16_22_0_0: flow_16_22_0_0 - 1000 edge_16_22_0_0 <= 0
 inactive_no_flow_16_23_0_0: flow_16_23_0_0 - 1000 edge_16_23_0_0 <= 0
 inactive_no_flow_16_24_0_0: flow_16_24_0_0 - 1000 edge_16_24_0_0 <= 0
 inactive_no_flow_16_27_0_0: flow_16_27_0_0 - 1000 edge_16_27_0_0 <= 0
 inactive_no_flow_17_16_0_0: flow_17_16_0_0 - 1000 edge_17_16_0_0 <= 0
 inactive_no_flow_17_18_0_0: flow_17_18_0_0 - 1000 edge_17_18_0_0 <= 0
 inactive_no_flow_17_19_0_0: flow_17_19_0_0 - 1000 edge_17_19_0_0 <= 0
 inactive_no_flow_18_17_0_0: flow_18_17_0_0 - 1000 edge_18_17_0_0 <= 0
 inactive_no_flow_19_4_0_0: flow_19_4_0_0 - 1000 edge_19_4_0_0 <= 0
 inactive_no_flow_19_13_0_0: flow_19_13_0_0 - 1000 edge_19_13_0_0 <= 0
 inactive_no_flow_19_14_0_0: flow_19_14_0_0 - 1000 edge_19_14_0_0 <= 0
 inactive_no_flow_19_16_0_0: flow_19_16_0_0 - 1000 edge_19_16_0_0 <= 0
 inactive_no_flow_19_17_0_0: flow_19_17_0_0 - 1000 edge_19_17_0_0 <= 0
 inactive_no_flow_19_18_0_0: flow_19_18_0_0 - 1000 edge_19_18_0_0 <= 0
 inactive_no_flow_19_21_0_0: flow_19_21_0_0 - 1000 edge_19_21_0_0 <= 0
 inactive_no_flow_19_22_0_0: flow_19_22_0_0 - 1000 edge_19_22_0_0 <= 0
 inactive_no_flow_19_23_0_0: flow_19_23_0_0 - 1000 edge_19_23_0_0 <= 0
 inactive_no_flow_19_24_0_0: flow_19_24_0_0 - 1000 edge_19_24_0_0 <= 0
 inactive_no_flow_19_26_0_0: flow_19_26_0_0 - 1000 edge_19_26_0_0 <= 0
 inactive_no_flow_19_27_0_0: flow_19_27_0_0 - 1000 edge_19_27_0_0 <= 0
 inactive_no_flow_21_17_0_0: flow_21_17_0_0 - 1000 edge_21_17_0_0 <= 0
 inactive_no_flow_21_18_0_0: flow_21_18_0_0 - 1000 edge_21_18_0_0 <= 0
 inactive_no_flow_21_19_0_0: flow_21_19_0_0 - 1000 edge_21_19_0_0 <= 0
 inactive_no_flow_22_23_0_0: flow_22_23_0_0 - 1000 edge_22_23_0_0 <= 0
 inactive_no_flow_23_22_0_0: flow_23_22_0_0 - 1000 edge_23_22_0_0 <= 0
 inactive_no_flow_23_24_0_0: flow_23_24_0_0 - 1000 edge_23_24_0_0 <= 0
 inactive_no_flow_23_26_0_0: flow_23_26_0_0 - 1000 edge_23_26_0_0 <= 0
 inactive_no_flow_24_1_0_0: flow_24_1_0_0 - 1000 edge_24_1_0_0 <= 0
 inactive_no_flow_24_6_0_0: flow_24_6_0_0 - 1000 edge_24_6_0_0 <= 0
 inactive_no_flow_24_8_0_0: flow_24_8_0_0 - 1000 edge_24_8_0_0 <= 0
 inactive_no_flow_24_9_0_0: flow_24_9_0_0 - 1000 edge_24_9_0_0 <= 0
 inactive_no_flow_24_10_0_0: flow_24_10_0_0 - 1000 edge_24_10_0_0 <= 0
 inactive_no_flow_24_11_0_0: flow_24_11_0_0 - 1000 edge_24_11_0_0 <= 0
 inactive_no_flow_24_12_0_0: flow_24_12_0_0 - 1000 edge_24_12_0_0 <= 0
 inactive_no_flow_24_14_0_0: flow_24_14_0_0 - 1000 edge_24_14_0_0 <= 0
 inactive_no_flow_24_15_0_0: flow_24_15_0_0 - 1000 edge_24_15_0_0 <= 0
 inactive_no_flow_24_16_0_0: flow_24_16_0_0 - 1000 edge_24_16_0_0 <= 0
 inactive_no_flow_24_17_0_0: flow_24_17_0_0 - 1000 edge_24_17_0_0 <= 0
 inactive_no_flow_24_18_0_0: flow_24_18_0_0 - 1000 edge_24_18_0_0 <= 0
 inactive_no_flow_24_19_0_0: flow_24_19_0_0 - 1000 edge_24_19_0_0 <= 0
 inactive_no_flow_24_21_0_0: flow_24_21_0_0 - 1000 edge_24_21_0_0 <= 0
 inactive_no_flow_24_22_0_0: flow_24_22_0_0 - 1000 edge_24_22_0_0 <= 0
 inactive_no_flow_24_23_0_0: flow_24_23_0_0 - 1000 edge_24_23_0_0 <= 0
 inactive_no_flow_24_24_0_0: flow_24_24_0_0 - 1000 edge_24_24_0_0 <= 0
 inactive_no_flow_24_26_0_0: flow_24_26_0_0 - 1000 edge_24_26_0_0 <= 0
 inactive_no_flow_24_27_0_0: flow_24_27_0_0 - 1000 edge_24_27_0_0 <= 0
 inactive_no_flow_26_18_0_0: flow_26_18_0_0 - 1000 edge_26_18_0_0 <= 0
 inactive_no_flow_26_22_0_0: flow_26_22_0_0 - 1000 edge_26_22_0_0 <= 0
 inactive_no_flow_26_27_0_0: flow_26_27_0_0 - 1000 edge_26_27_0_0 <= 0
 inactive_no_flow_27_26_0_0: flow_27_26_0_0 - 1000 edge_27_26_0_0 <= 0
Bounds
Binaries
 edge_0_1_0_0 edge_0_2_0_0 edge_0_3_0_0 edge_0_6_0_0 edge_0_8_0_0
 edge_0_11_0_0 edge_0_15_0_0 edge_0_24_0_0 edge_1_2_0_0 edge_1_3_0_0
 edge_1_6_0_0 edge_2_1_0_0 edge_2_3_0_0 edge_2_4_0_0 edge_2_6_0_0
 edge_2_7_0_0 edge_2_8_0_0 edge_2_9_0_0 edge_3_1_0_0 edge_3_2_0_0
 edge_3_4_0_0 edge_3_6_0_0 edge_3_7_0_0 edge_3_8_0_0 edge_3_9_0_0
 edge_3_11_0_0 edge_3_12_0_0 edge_4_1_0_0 edge_4_2_0_0 edge_4_3_0_0
 edge_4_7_0_0 edge_6_1_0_0 edge_6_2_0_0 edge_6_3_0_0 edge_6_4_0_0
 edge_6_7_0_0 edge_6_8_0_0 edge_6_9_0_0 edge_6_10_0_0 edge_6_11_0_0
 edge_6_12_0_0 edge_6_13_0_0 edge_6_14_0_0 edge_6_15_0_0 edge_6_18_0_0
 edge_6_21_0_0 edge_6_24_0_0 edge_6_27_0_0 edge_7_2_0_0 edge_7_3_0_0
 edge_7_4_0_0 edge_7_8_0_0 edge_7_9_0_0 edge_7_10_0_0 edge_7_11_0_0
 edge_7_12_0_0 edge_7_15_0_0 edge_8_1_0_0 edge_8_2_0_0 edge_8_3_0_0
 edge_8_4_0_0 edge_8_6_0_0 edge_8_7_0_0 edge_8_9_0_0 edge_8_10_0_0
 edge_8_11_0_0 edge_8_12_0_0 edge_8_13_0_0 edge_8_14_0_0 edge_8_15_0_0
 edge_8_16_0_0 edge_8_19_0_0 edge_8_21_0_0 edge_8_24_0_0 edge_8_27_0_0
 edge_10_12_0_0 edge_10_13_0_0 edge_10_15_0_0 edge_11_1_0_0 edge_11_2_0_0
 edge_11_3_0_0 edge_11_4_0_0 edge_11_6_0_0 edge_11_7_0_0 edge_11_8_0_0
 edge_11_9_0_0 edge_11_10_0_0 edge_11_12_0_0 edge_11_13_0_0 edge_11_14_0_0
 edge_11_15_0_0 edge_11_16_0_0 edge_11_17_0_0 edge_11_18_0_0 edge_11_19_0_0
 edge_11_21_0_0 edge_11_24_0_0 edge_11_27_0_0 edge_12_10_0_0 edge_13_14_0_0
 edge_13_15_0_0 edge_13_16_0_0 edge_14_13_0_0 edge_15_1_0_0 edge_15_2_0_0
 edge_15_3_0_0 edge_15_4_0_0 edge_15_6_0_0 edge_15_7_0_0 edge_15_8_0_0
 edge_15_9_0_0 edge_15_10_0_0 edge_15_11_0_0 edge_15_12_0_0 edge_15_13_0_0
 edge_15_14_0_0 edge_15_16_0_0 edge_15_17_0_0 edge_15_18_0_0 edge_15_19_0_0
 edge_15_21_0_0 edge_15_22_0_0 edge_15_23_0_0 edge_15_24_0_0 edge_15_26_0_0
 edge_15_27_0_0 edge_16_10_0_0 edge_16_13_0_0 edge_16_14_0_0 edge_16_17_0_0
 edge_16_18_0_0 edge_16_19_0_0 edge_16_21_0_0 edge_16_22_0_0 edge_16_23_0_0
 edge_16_24_0_0 edge_16_27_0_0 edge_17_16_0_0 edge_17_18_0_0 edge_17_19_0_0
 edge_18_17_0_0 edge_19_4_0_0 edge_19_13_0_0 edge_19_14_0_0 edge_19_16_0_0
 edge_19_17_0_0 edge_19_18_0_0 edge_19_21_0_0 edge_19_22_0_0 edge_19_23_0_0
 edge_19_24_0_0 edge_19_26_0_0 edge_19_27_0_0 edge_21_17_0_0 edge_21_18_0_0
 edge_21_19_0_0 edge_22_23_0_0 edge_23_22_0_0 edge_23_24_0_0 edge_23_26_0_0
 edge_24_1_0_0 edge_24_6_0_0 edge_24_8_0_0 edge_24_9_0_0 edge_24_10_0_0
 edge_24_11_0_0 edge_24_12_0_0 edge_24_14_0_0 edge_24_15_0_0 edge_24_16_0_0
 edge_24_17_0_0 edge_24_18_0_0 edge_24_19_0_0 edge_24_21_0_0 edge_24_22_0_0
 edge_24_23_0_0 edge_24_24_0_0 edge_24_26_0_0 edge_24_27_0_0 edge_26_18_0_0
 edge_26_22_0_0 edge_26_27_0_0 edge_27_26_0_0
End
